networks/zoo_110_1189/zoo_110_1189-lower.txt
Number of groups: 45
Flow 1: {4 1 0} {1 56 0} 
Flow 1: {2 4 0} Flow 2: {4 3 0} {3 58 0} 
Flow 3: {1 26 0} {26 32 0} {32 6 0} {6 5 0} {5 60 0} 
Flow 4: {32 7 0} {7 62 0} 
Flow 5: {5 10 0} {10 9 0} {9 64 0} 
Flow 6: {10 65 0} 
Flow 7: {1 13 0} {13 68 0} 
Flow 8: {7 14 0} {14 69 0} 
Flow 9: {14 39 0} {39 42 0} {42 25 0} {25 17 0} {17 72 0} 
Flow 10: {17 18 0} {18 19 0} {19 74 0} 
Flow 11: {17 11 0} {11 20 0} {20 75 0} 
Flow 12: {20 21 0} {21 22 0} {22 77 0} 
Flow 13: {11 12 0} {12 15 0} {15 24 0} {24 79 0} 
Flow 14: {26 81 0} 
Flow 15: {15 16 0} {16 29 0} {29 84 0} 
Flow 16: {26 34 0} {34 33 0} {33 30 0} {30 85 0} 
Flow 17: {32 87 0} 
Flow 18: {33 88 0} 
Flow 19: {33 35 0} {35 90 0} 
Flow 20: {42 36 0} {36 91 0} 
Flow 21: {25 37 0} {37 92 0} 
Flow 22: {39 94 0} 
Flow 23: {30 41 0} {41 96 0} 
Flow 24: {42 97 0} 
Flow 25: {3 46 0} {46 101 0} 
Flow 26: {2 47 0} {47 102 0} 
Flow 27: {46 54 0} {54 51 0} {51 106 0} 
Flow 28: {54 52 0} {52 107 0} 
Flow 29: {54 109 0} 
Flow 30: {3 26 0} {26 1 0} Flow 31: {3 4 0} {4 59 0} 
Flow 34: {5 8 0} {8 63 0} 
Flow 37: {12 67 0} 
Flow 40: {15 70 0} 
Flow 41: {16 71 0} 
Flow 52: {34 89 0} 
Flow 59: {42 43 0} {43 44 0} {44 99 0} 
Flow 60: {9 38 0} {38 45 0} {45 100 0} 
Flow 62: {3 47 0} Flow 63: {7 49 0} {49 48 0} {48 103 0} 
Flow 94: {4 2 0} Flow 99: {6 32 0} {32 26 0} Flow 100: {26 3 0} Flow 101: {1 4 0} Flow 103: {6 7 0} Flow 107: {10 39 0} Flow 119: {14 30 0} Flow 121: {32 33 0} Flow 122: {14 35 0} Flow 126: {14 40 0} {40 41 0} Flow 128: {45 44 0} Flow 130: {7 55 0} {55 46 0} Flow 133: {14 51 0} Flow 134: {51 52 0} Flow 136: {7 32 0} Flow 139: {7 6 0} Flow 141: {14 10 0} Flow 172: {8 5 0} {5 6 0} Flow 176: {8 9 0} Flow 180: {10 14 0} Flow 202: {51 54 0} Flow 203: {9 8 0} Flow 207: {9 10 0} {14 7 0} Flow 224: {35 33 0} Flow 225: {33 34 0} Flow 229: {38 93 0} 
Flow 241: {55 110 0} 
Flow 242: {10 5 0} Flow 257: {11 17 0} {17 25 0} {25 42 0} {42 39 0} {39 14 0} Flow 260: {39 10 0} Flow 271: {18 73 0} 
Flow 272: {20 19 0} Flow 283: {17 36 0} Flow 287: {39 40 0} Flow 290: {44 45 0} Flow 298: {12 11 0} Flow 311: {12 20 0} Flow 337: {13 1 0} Flow 351: {13 27 0} {27 34 0} Flow 382: {21 76 0} 
Flow 384: {22 23 0} {23 78 0} 
Flow 389: {23 31 0} {31 86 0} 
Flow 409: {16 15 0} {15 12 0} Flow 433: {19 18 0} {18 17 0} Flow 440: {19 20 0} {20 12 0} Flow 446: {19 21 0} Flow 447: {22 24 0} Flow 467: {21 19 0} Flow 474: {21 20 0} Flow 501: {23 22 0} {22 21 0} Flow 517: {24 15 0} Flow 552: {27 13 0} Flow 553: {27 26 0} Flow 581: {28 29 0} {29 16 0} Flow 590: {28 31 0} {31 23 0} Flow 624: {24 22 0} Flow 643: {30 33 0} {33 32 0} Flow 646: {30 14 0} Flow 652: {34 27 0} Flow 669: {30 35 0} Flow 739: {40 95 0} 
Flow 751: {34 26 0} Flow 789: {35 14 0} Flow 806: {35 30 0} Flow 825: {37 25 0} Flow 827: {38 9 0} Flow 853: {40 14 0} Flow 860: {40 39 0} Flow 877: {41 30 0} Flow 884: {41 40 0} Flow 893: {43 42 0} Flow 922: {44 43 0} Flow 926: {45 38 0} Flow 966: {46 3 0} Flow 969: {46 55 0} {55 7 0} Flow 972: {51 14 0} Flow 1000: {51 50 0} {50 48 0} Flow 1005: {47 2 0} Flow 1006: {47 3 0} Flow 1029: {48 49 0} {49 7 0} Flow 1057: {48 50 0} {50 51 0} Flow 1060: {50 49 0} Flow 1061: {54 46 0} Flow 1086: {52 54 0} Flow 1088: {52 51 0} Flow 1120: {53 51 0} Time taken running everything: 0 seconds
