networks/zoo_110_1189/zoo_110_1189-lower.sol
<?xml version = "1.0" encoding="UTF-8" standalone="yes"?>
<CPLEXSolution version="1.2">
 <header
   problemName="networks/zoo_110_1189/zoo_110_1189.lp"
   solutionName="incumbent"
   solutionIndex="-1"
   objectiveValue="62"
   solutionTypeValue="3"
   solutionTypeString="primal"
   solutionStatusValue="101"
   solutionStatusString="integer optimal solution"
   solutionMethodString="mip"
   primalFeasible="1"
   dualFeasible="1"
   MIPNodes="1192"
   MIPIterations="646361"
   writeLevel="3"/>
 <quality
   epInt="1.0000000000000001e-05"
   epRHS="9.9999999999999995e-07"
   maxIntInfeas="1.3322676295501878e-15"
   maxPrimalInfeas="7.9936057773011271e-15"
   maxX="4.0000000000000009"
   maxSlack="10"/>
 <variables>
  <variable name="Y(52,34)" index="5133" value="-4.4408920985006262e-16"/>
  <variable name="Y(68,3)" index="6702" value="1"/>
  <variable name="Y(94,47)" index="9346" value="1"/>
  <variable name="Y(103,7)" index="10206" value="1"/>
  <variable name="Y(128,44)" index="12743" value="1"/>
  <variable name="Y(176,9)" index="17508" value="1"/>
  <variable name="Y(202,54)" index="20153" value="1"/>
  <variable name="Y(223,32)" index="22231" value="1"/>
  <variable name="Y(225,34)" index="22433" value="1.0000000000000004"/>
  <variable name="Y(301,5)" index="30004" value="1"/>
  <variable name="Y(311,19)" index="31018" value="1"/>
  <variable name="Y(329,45)" index="32844" value="1"/>
  <variable name="Y(349,26)" index="34825" value="1"/>
  <variable name="Y(354,33)" index="35332" value="1"/>
  <variable name="Y(379,18)" index="37817" value="1"/>
  <variable name="Y(389,31)" index="38830" value="1"/>
  <variable name="Y(439,10)" index="43809" value="1"/>
  <variable name="Y(440,12)" index="43911" value="1"/>
  <variable name="Y(447,22)" index="44621" value="1"/>
  <variable name="Y(480,20)" index="47919" value="1"/>
  <variable name="Y(489,17)" index="48816" value="1"/>
  <variable name="Y(521,11)" index="52010" value="1"/>
  <variable name="Y(529,1)" index="52800" value="1"/>
  <variable name="Y(556,32)" index="55531" value="1"/>
  <variable name="Y(590,22)" index="58921" value="1"/>
  <variable name="Y(593,24)" index="59223" value="1"/>
  <variable name="Y(624,22)" index="62321" value="1"/>
  <variable name="Y(639,49)" index="63848" value="1"/>
  <variable name="Y(645,1)" index="64400" value="1"/>
  <variable name="Y(652,13)" index="65112" value="1"/>
  <variable name="Y(655,16)" index="65415" value="1"/>
  <variable name="Y(656,17)" index="65516" value="1"/>
  <variable name="Y(724,21)" index="72320" value="1"/>
  <variable name="Y(726,23)" index="72522" value="1"/>
  <variable name="Y(739,40)" index="73839" value="1"/>
  <variable name="Y(760,14)" index="75913" value="1"/>
  <variable name="Y(784,54)" index="78353" value="1"/>
  <variable name="Y(812,38)" index="81137" value="1"/>
  <variable name="Y(814,41)" index="81340" value="1"/>
  <variable name="Y(826,37)" index="82536" value="1"/>
  <variable name="Y(866,30)" index="86529" value="1"/>
  <variable name="Y(871,37)" index="87036" value="0.99999999999999978"/>
  <variable name="Y(888,35)" index="88734" value="1"/>
  <variable name="Y(889,40)" index="88839" value="1"/>
  <variable name="Y(941,36)" index="94035" value="1"/>
  <variable name="Y(944,40)" index="94339" value="1"/>
  <variable name="Y(962,39)" index="96138" value="1"/>
  <variable name="Y(971,8)" index="97007" value="1"/>
  <variable name="Y(1004,55)" index="100354" value="1"/>
  <variable name="Y(1005,1)" index="100400" value="1"/>
  <variable name="Y(1025,26)" index="102425" value="1"/>
  <variable name="Y(1044,29)" index="104328" value="1"/>
  <variable name="Y(1055,46)" index="105445" value="1"/>
  <variable name="Y(1058,52)" index="105751" value="1"/>
  <variable name="Y(1076,50)" index="107549" value="1"/>
  <variable name="Y(1098,18)" index="109717" value="1"/>
  <variable name="Y(1116,3)" index="111502" value="1"/>
  <variable name="Y(1117,48)" index="111647" value="1"/>
  <variable name="Y(1123,51)" index="112250" value="1"/>
  <variable name="Y(1126,4)" index="112503" value="1"/>
  <variable name="Y(1135,15)" index="113414" value="1"/>
  <variable name="Y(1153,42)" index="115241" value="1"/>
  <variable name="Y(1178,33)" index="117732" value="1"/>
  <variable name="X(1,4,645)" index="119544" value="1"/>
  <variable name="X(1,13,529)" index="120617" value="1"/>
  <variable name="X(1,26,349)" index="121626" value="0.99999999999999956"/>
  <variable name="X(1,56,1005)" index="123471" value="1"/>
  <variable name="X(2,4,1005)" index="124660" value="1"/>
  <variable name="X(2,47,94)" index="124938" value="1"/>
  <variable name="X(3,4,1126)" index="127159" value="1"/>
  <variable name="X(3,26,1025)" index="128247" value="1"/>
  <variable name="X(3,46,784)" index="129195" value="1"/>
  <variable name="X(3,47,1116)" index="130716" value="1"/>
  <variable name="X(3,58,68)" index="130857" value="1"/>
  <variable name="X(4,1,1005)" index="132983" value="1"/>
  <variable name="X(4,2,94)" index="133261" value="1"/>
  <variable name="X(4,3,68)" index="134424" value="1"/>
  <variable name="X(4,59,1126)" index="136671" value="1"/>
  <variable name="X(5,6,223)" index="136957" value="1"/>
  <variable name="X(5,8,971)" index="138894" value="1"/>
  <variable name="X(5,10,202)" index="139314" value="1"/>
  <variable name="X(5,60,301)" index="140602" value="1"/>
  <variable name="X(6,5,971)" index="142461" value="1"/>
  <variable name="X(6,7,103)" index="142782" value="1"/>
  <variable name="X(6,32,223)" index="144091" value="1"/>
  <variable name="X(7,6,971)" index="146028" value="1"/>
  <variable name="X(7,14,739)" index="146985" value="1"/>
  <variable name="X(7,32,1178)" index="148613" value="1"/>
  <variable name="X(7,49,639)" index="149263" value="1"/>
  <variable name="X(7,55,1055)" index="150868" value="1"/>
  <variable name="X(7,62,103)" index="151105" value="1"/>
  <variable name="X(8,5,223)" index="152414" value="1"/>
  <variable name="X(8,9,176)" index="153556" value="1"/>
  <variable name="X(8,63,971)" index="155540" value="1"/>
  <variable name="X(9,8,223)" index="155981" value="1"/>
  <variable name="X(9,10,962)" index="157909" value="1"/>
  <variable name="X(9,38,812)" index="158948" value="1"/>
  <variable name="X(9,64,176)" index="159501" value="1"/>
  <variable name="X(10,5,301)" index="160815" value="1"/>
  <variable name="X(10,9,812)" index="162515" value="1"/>
  <variable name="X(10,14,202)" index="163094" value="1"/>
  <variable name="X(10,39,962)" index="165043" value="1"/>
  <variable name="X(10,65,439)" index="165709" value="1"/>
  <variable name="X(11,12,655)" index="167114" value="1"/>
  <variable name="X(11,17,521)" index="168169" value="1"/>
  <variable name="X(11,20,724)" index="169561" value="1"/>
  <variable name="X(12,11,521)" index="170547" value="1"/>
  <variable name="X(12,15,655)" index="171870" value="1"/>
  <variable name="X(12,20,311)" index="172715" value="1"/>
  <variable name="X(12,67,440)" index="174033" value="1"/>
  <variable name="X(13,1,349)" index="175131" value="0.99999999999999956"/>
  <variable name="X(13,27,354)" index="176325" value="1"/>
  <variable name="X(13,68,652)" index="177812" value="1"/>
  <variable name="X(14,7,639)" index="178988" value="1"/>
  <variable name="X(14,10,812)" index="180350" value="1"/>
  <variable name="X(14,30,866)" index="181593" value="1"/>
  <variable name="X(14,35,225)" index="182141" value="1"/>
  <variable name="X(14,39,1153)" index="184258" value="0.99999999999999933"/>
  <variable name="X(14,40,739)" index="185033" value="1"/>
  <variable name="X(14,51,202)" index="185685" value="1"/>
  <variable name="X(14,69,760)" index="187432" value="1"/>
  <variable name="X(15,12,521)" index="188382" value="1"/>
  <variable name="X(15,16,655)" index="189705" value="1"/>
  <variable name="X(15,24,593)" index="190832" value="1"/>
  <variable name="X(15,70,1135)" index="192563" value="1"/>
  <variable name="X(16,15,593)" index="193210" value="1"/>
  <variable name="X(16,29,1044)" index="194850" value="1"/>
  <variable name="X(16,71,655)" index="195650" value="1"/>
  <variable name="X(17,11,655)" index="196839" value="1"/>
  <variable name="X(17,18,379)" index="197752" value="1"/>
  <variable name="X(17,25,439)" index="199001" value="1"/>
  <variable name="X(17,36,489)" index="200240" value="1"/>
  <variable name="X(17,72,656)" index="201596" value="1"/>
  <variable name="X(18,17,489)" index="202618" value="1"/>
  <variable name="X(18,19,1098)" index="204416" value="1"/>
  <variable name="X(18,73,379)" index="204886" value="1"/>
  <variable name="X(19,18,489)" index="206185" value="1"/>
  <variable name="X(19,20,440)" index="207325" value="1"/>
  <variable name="X(19,21,447)" index="208521" value="1"/>
  <variable name="X(19,74,311)" index="209574" value="1"/>
  <variable name="X(20,12,440)" index="210892" value="1"/>
  <variable name="X(20,19,311)" index="211952" value="1"/>
  <variable name="X(20,21,724)" index="213554" value="1"/>
  <variable name="X(20,75,480)" index="214499" value="1"/>
  <variable name="X(21,19,489)" index="215697" value="1"/>
  <variable name="X(21,20,480)" index="216877" value="1"/>
  <variable name="X(21,22,447)" index="218033" value="1"/>
  <variable name="X(21,76,724)" index="219499" value="1"/>
  <variable name="X(22,21,590)" index="220554" value="1"/>
  <variable name="X(22,23,389)" index="221542" value="1"/>
  <variable name="X(22,24,447)" index="222789" value="1"/>
  <variable name="X(22,77,624)" index="224155" value="1"/>
  <variable name="X(23,22,590)" index="225310" value="1"/>
  <variable name="X(23,31,389)" index="226298" value="1"/>
  <variable name="X(23,78,726)" index="227824" value="1"/>
  <variable name="X(24,15,521)" index="228808" value="1"/>
  <variable name="X(24,22,624)" index="230100" value="1"/>
  <variable name="X(24,79,593)" index="231258" value="1"/>
  <variable name="X(25,17,656)" index="232510" value="1"/>
  <variable name="X(25,37,871)" index="233914" value="1"/>
  <variable name="X(25,42,439)" index="234671" value="1"/>
  <variable name="X(26,1,645)" index="236066" value="1.0000000000000002"/>
  <variable name="X(26,3,784)" index="237394" value="1.0000000000000009"/>
  <variable name="X(26,32,556)" index="238355" value="1"/>
  <variable name="X(26,34,1025)" index="240013" value="1"/>
  <variable name="X(26,81,349)" index="240526" value="1"/>
  <variable name="X(27,13,652)" index="242018" value="1"/>
  <variable name="X(27,26,556)" index="243111" value="1"/>
  <variable name="X(27,34,354)" index="244098" value="1"/>
  <variable name="X(28,29,593)" index="245526" value="1"/>
  <variable name="X(28,31,590)" index="246712" value="1"/>
  <variable name="X(29,16,593)" index="247904" value="1"/>
  <variable name="X(29,84,1044)" index="249544" value="1"/>
  <variable name="X(30,14,760)" index="250449" value="1"/>
  <variable name="X(30,33,645)" index="251523" value="1"/>
  <variable name="X(30,35,888)" index="252955" value="1"/>
  <variable name="X(30,41,814)" index="254070" value="1"/>
  <variable name="X(30,85,866)" index="255311" value="1"/>
  <variable name="X(31,23,590)" index="256224" value="1"/>
  <variable name="X(31,86,389)" index="257212" value="1"/>
  <variable name="X(32,6,556)" index="258568" value="1"/>
  <variable name="X(32,7,739)" index="259940" value="1"/>
  <variable name="X(32,26,645)" index="261035" value="1.0000000000000013"/>
  <variable name="X(32,33,1178)" index="262757" value="1"/>
  <variable name="X(32,87,223)" index="262991" value="1"/>
  <variable name="X(33,30,760)" index="264717" value="1"/>
  <variable name="X(33,32,645)" index="265791" value="1"/>
  <variable name="X(33,34,225)" index="266560" value="1"/>
  <variable name="X(33,35,354)" index="267878" value="1"/>
  <variable name="X(33,88,1178)" index="269891" value="1"/>
  <variable name="X(34,26,784)" index="270686" value="1.0000000000000009"/>
  <variable name="X(34,27,652)" index="271743" value="1"/>
  <variable name="X(34,33,354)" index="272634" value="1"/>
  <variable name="X(34,89,52)" index="273521" value="-4.4408920985006262e-16"/>
  <variable name="X(34,89,225)" index="273694" value="1.0000000000000004"/>
  <variable name="X(35,14,812)" index="275470" value="1"/>
  <variable name="X(35,30,814)" index="276661" value="1"/>
  <variable name="X(35,33,225)" index="277261" value="1"/>
  <variable name="X(35,90,888)" index="279113" value="1"/>
  <variable name="X(36,91,941)" index="280355" value="1"/>
  <variable name="X(37,25,826)" index="281429" value="1"/>
  <variable name="X(37,92,871)" index="282663" value="0.99999999999999978"/>
  <variable name="X(38,9,962)" index="283943" value="1"/>
  <variable name="X(38,45,128)" index="284298" value="1"/>
  <variable name="X(38,93,812)" index="286171" value="1"/>
  <variable name="X(39,10,439)" index="286987" value="1"/>
  <variable name="X(39,14,639)" index="288376" value="1"/>
  <variable name="X(39,40,944)" index="289870" value="1"/>
  <variable name="X(39,42,1153)" index="291268" value="0.99999999999999933"/>
  <variable name="X(39,94,962)" index="292266" value="1"/>
  <variable name="X(40,14,866)" index="293359" value="1"/>
  <variable name="X(40,39,889)" index="294571" value="1"/>
  <variable name="X(40,41,944)" index="295815" value="1"/>
  <variable name="X(40,95,739)" index="296799" value="1"/>
  <variable name="X(41,30,888)" index="298137" value="1"/>
  <variable name="X(41,40,889)" index="299327" value="1"/>
  <variable name="X(41,96,814)" index="300441" value="1"/>
  <variable name="X(42,25,656)" index="301472" value="1"/>
  <variable name="X(42,36,941)" index="302946" value="1"/>
  <variable name="X(42,39,439)" index="303633" value="1"/>
  <variable name="X(42,43,329)" index="304712" value="1"/>
  <variable name="X(42,97,1153)" index="306725" value="1"/>
  <variable name="X(43,42,941)" index="307702" value="1"/>
  <variable name="X(43,44,329)" index="308279" value="1"/>
  <variable name="X(44,43,941)" index="310080" value="1"/>
  <variable name="X(44,45,329)" index="310657" value="1"/>
  <variable name="X(44,99,128)" index="311645" value="1"/>
  <variable name="X(45,38,962)" index="313668" value="1"/>
  <variable name="X(45,44,128)" index="314023" value="1"/>
  <variable name="X(45,100,329)" index="315413" value="1"/>
  <variable name="X(46,3,1116)" index="317389" value="1"/>
  <variable name="X(46,54,784)" index="318246" value="1"/>
  <variable name="X(46,55,1004)" index="319655" value="1"/>
  <variable name="X(46,101,1055)" index="320895" value="1"/>
  <variable name="X(47,2,1005)" index="322034" value="1"/>
  <variable name="X(47,3,1025)" index="323243" value="1"/>
  <variable name="X(47,102,94)" index="323501" value="1"/>
  <variable name="X(48,49,1055)" index="325651" value="1"/>
  <variable name="X(48,50,1058)" index="326843" value="1"/>
  <variable name="X(48,103,1117)" index="328091" value="1"/>
  <variable name="X(49,7,1055)" index="329218" value="1"/>
  <variable name="X(49,48,639)" index="329991" value="1"/>
  <variable name="X(50,48,1117)" index="331658" value="1"/>
  <variable name="X(50,49,1076)" index="332806" value="1"/>
  <variable name="X(50,51,1058)" index="333977" value="1"/>
  <variable name="X(51,14,1153)" index="335261" value="1"/>
  <variable name="X(51,50,1117)" index="336414" value="1"/>
  <variable name="X(51,52,1058)" index="337544" value="1"/>
  <variable name="X(51,54,202)" index="337877" value="1"/>
  <variable name="X(51,106,1123)" index="339987" value="1"/>
  <variable name="X(52,51,1117)" index="341170" value="1"/>
  <variable name="X(52,54,1116)" index="342358" value="1"/>
  <variable name="X(52,107,1058)" index="343489" value="1"/>
  <variable name="X(53,51,1123)" index="344743" value="1"/>
  <variable name="X(54,46,1116)" index="345925" value="1"/>
  <variable name="X(54,51,1153)" index="347151" value="1"/>
  <variable name="X(54,52,784)" index="347971" value="1"/>
  <variable name="X(54,109,202)" index="348578" value="1"/>
  <variable name="X(55,7,971)" index="350536" value="1"/>
  <variable name="X(55,46,1055)" index="351809" value="1"/>
  <variable name="X(55,110,1004)" index="352947" value="1"/>
  <variable name="C(68,3)" index="353610" value="1"/>
  <variable name="C(94,2)" index="353814" value="1"/>
  <variable name="C(94,47)" index="353815" value="2"/>
  <variable name="C(103,7)" index="353853" value="1"/>
  <variable name="C(128,45)" index="354009" value="1.0000000000000004"/>
  <variable name="C(128,44)" index="354010" value="2.0000000000000004"/>
  <variable name="C(176,9)" index="354247" value="1"/>
  <variable name="C(202,10)" index="354412" value="1"/>
  <variable name="C(202,14)" index="354413" value="2"/>
  <variable name="C(202,51)" index="354414" value="3"/>
  <variable name="C(202,54)" index="354415" value="4"/>
  <variable name="C(223,8)" index="354551" value="1"/>
  <variable name="C(223,5)" index="354552" value="1.9999999999999982"/>
  <variable name="C(223,6)" index="354553" value="2.9999999999999982"/>
  <variable name="C(223,32)" index="354554" value="3.9999999999999982"/>
  <variable name="C(225,35)" index="354563" value="1"/>
  <variable name="C(225,33)" index="354564" value="2"/>
  <variable name="C(225,34)" index="354565" value="3"/>
  <variable name="C(301,5)" index="355009" value="1"/>
  <variable name="C(311,20)" index="355070" value="1"/>
  <variable name="C(311,19)" index="355071" value="2"/>
  <variable name="C(329,43)" index="355188" value="1"/>
  <variable name="C(329,44)" index="355189" value="2"/>
  <variable name="C(329,45)" index="355190" value="3"/>
  <variable name="C(349,1)" index="355359" value="0.99999999999999956"/>
  <variable name="C(349,26)" index="355360" value="1.9999999999999991"/>
  <variable name="C(354,27)" index="355390" value="1"/>
  <variable name="C(354,34)" index="355391" value="1.9999999999999982"/>
  <variable name="C(354,33)" index="355392" value="2.9999999999999982"/>
  <variable name="C(379,18)" index="355544" value="1"/>
  <variable name="C(389,23)" index="355620" value="1"/>
  <variable name="C(389,31)" index="355621" value="2"/>
  <variable name="C(439,25)" index="355918" value="1"/>
  <variable name="C(439,42)" index="355919" value="2"/>
  <variable name="C(439,39)" index="355920" value="3"/>
  <variable name="C(439,10)" index="355921" value="4"/>
  <variable name="C(440,20)" index="355923" value="1"/>
  <variable name="C(440,12)" index="355924" value="2"/>
  <variable name="C(447,21)" index="355958" value="1"/>
  <variable name="C(447,22)" index="355959" value="2"/>
  <variable name="C(480,20)" index="356217" value="1"/>
  <variable name="C(489,21)" index="356278" value="1.0000000000000009"/>
  <variable name="C(489,19)" index="356279" value="2.0000000000000009"/>
  <variable name="C(489,18)" index="356280" value="3.0000000000000009"/>
  <variable name="C(489,17)" index="356281" value="4.0000000000000009"/>
  <variable name="C(521,15)" index="356579" value="1"/>
  <variable name="C(521,12)" index="356580" value="2"/>
  <variable name="C(521,11)" index="356581" value="3"/>
  <variable name="C(556,26)" index="356765" value="1"/>
  <variable name="C(556,32)" index="356766" value="2"/>
  <variable name="C(590,31)" index="357043" value="1"/>
  <variable name="C(590,23)" index="357044" value="2"/>
  <variable name="C(590,22)" index="357045" value="3"/>
  <variable name="C(593,29)" index="357059" value="1"/>
  <variable name="C(593,16)" index="357060" value="2"/>
  <variable name="C(593,15)" index="357061" value="3"/>
  <variable name="C(593,24)" index="357062" value="4"/>
  <variable name="C(624,22)" index="357380" value="1"/>
  <variable name="C(639,14)" index="357535" value="1"/>
  <variable name="C(639,7)" index="357536" value="2"/>
  <variable name="C(639,49)" index="357537" value="3"/>
  <variable name="C(645,33)" index="357585" value="1"/>
  <variable name="C(645,32)" index="357586" value="2"/>
  <variable name="C(645,26)" index="357587" value="3.0000000000000009"/>
  <variable name="C(645,1)" index="357588" value="4.0000000000000009"/>
  <variable name="C(652,27)" index="357620" value="1"/>
  <variable name="C(652,13)" index="357621" value="2"/>
  <variable name="C(655,11)" index="357639" value="1"/>
  <variable name="C(655,12)" index="357640" value="2"/>
  <variable name="C(655,15)" index="357641" value="3"/>
  <variable name="C(655,16)" index="357642" value="4"/>
  <variable name="C(656,25)" index="357647" value="1"/>
  <variable name="C(656,17)" index="357648" value="2"/>
  <variable name="C(724,20)" index="358146" value="1"/>
  <variable name="C(724,21)" index="358147" value="2"/>
  <variable name="C(739,7)" index="358244" value="1"/>
  <variable name="C(739,14)" index="358245" value="2"/>
  <variable name="C(739,40)" index="358246" value="3"/>
  <variable name="C(760,30)" index="358346" value="1"/>
  <variable name="C(760,14)" index="358347" value="2"/>
  <variable name="C(784,26)" index="358504" value="1.0000000000000009"/>
  <variable name="C(784,3)" index="358505" value="2"/>
  <variable name="C(784,46)" index="358506" value="3"/>
  <variable name="C(784,54)" index="358507" value="4"/>
  <variable name="C(812,14)" index="358662" value="1.0000000000000018"/>
  <variable name="C(812,10)" index="358663" value="2"/>
  <variable name="C(812,9)" index="358664" value="3"/>
  <variable name="C(812,38)" index="358665" value="4"/>
  <variable name="C(814,30)" index="358670" value="1"/>
  <variable name="C(814,41)" index="358671" value="1.9999999999999982"/>
  <variable name="C(866,14)" index="358962" value="1"/>
  <variable name="C(866,30)" index="358963" value="2"/>
  <variable name="C(871,37)" index="358983" value="1"/>
  <variable name="C(888,30)" index="359056" value="1"/>
  <variable name="C(888,35)" index="359057" value="2"/>
  <variable name="C(889,40)" index="359059" value="1"/>
  <variable name="C(941,43)" index="359379" value="1"/>
  <variable name="C(941,42)" index="359380" value="2"/>
  <variable name="C(941,36)" index="359381" value="3"/>
  <variable name="C(944,40)" index="359395" value="1"/>
  <variable name="C(962,38)" index="359507" value="1"/>
  <variable name="C(962,9)" index="359508" value="2"/>
  <variable name="C(962,10)" index="359509" value="3"/>
  <variable name="C(962,39)" index="359510" value="4"/>
  <variable name="C(971,7)" index="359548" value="1"/>
  <variable name="C(971,6)" index="359549" value="2"/>
  <variable name="C(971,5)" index="359550" value="3"/>
  <variable name="C(971,8)" index="359551" value="4"/>
  <variable name="C(1004,55)" index="359768" value="1"/>
  <variable name="C(1005,2)" index="359770" value="1"/>
  <variable name="C(1005,4)" index="359771" value="2"/>
  <variable name="C(1005,1)" index="359772" value="3"/>
  <variable name="C(1025,3)" index="359921" value="1"/>
  <variable name="C(1025,26)" index="359922" value="2"/>
  <variable name="C(1044,29)" index="360064" value="1"/>
  <variable name="C(1055,49)" index="360125" value="1"/>
  <variable name="C(1055,7)" index="360126" value="2"/>
  <variable name="C(1055,55)" index="360127" value="3"/>
  <variable name="C(1055,46)" index="360128" value="4"/>
  <variable name="C(1058,50)" index="360140" value="1"/>
  <variable name="C(1058,51)" index="360141" value="2"/>
  <variable name="C(1058,52)" index="360142" value="3"/>
  <variable name="C(1116,54)" index="360482" value="1"/>
  <variable name="C(1116,46)" index="360483" value="2"/>
  <variable name="C(1116,3)" index="360484" value="3"/>
  <variable name="C(1117,51)" index="360487" value="1"/>
  <variable name="C(1117,50)" index="360488" value="2"/>
  <variable name="C(1117,48)" index="360489" value="3"/>
  <variable name="C(1123,51)" index="360513" value="1"/>
  <variable name="C(1126,4)" index="360525" value="1"/>
  <variable name="C(1153,51)" index="360698" value="1"/>
  <variable name="C(1153,14)" index="360699" value="1.9999999999999982"/>
  <variable name="C(1153,39)" index="360700" value="2.9999999999999973"/>
  <variable name="C(1153,42)" index="360701" value="3.9999999999999973"/>
  <variable name="C(1178,32)" index="360834" value="1"/>
  <variable name="C(1178,33)" index="360835" value="2"/>
 </variables>
</CPLEXSolution>
